<number of tasks>
58

<cycle time>
74

<task times>
1 10
2 53
3 41
4 36
5 35
6 17
7 34
8 23
9 14
10 52
11 33
12 34
13 12
14 52
15 12
16 33
17 44
18 7
19 15
20 13
21 29
22 37
23 43
24 23
25 24
26 9
27 16
28 12
29 26
30 22
31 51
32 47
33 34
34 23
35 12
36 52
37 12
38 33
39 44
40 7
41 15
42 13
43 29
44 37
45 43
46 23
47 24
48 9
49 16
50 12
51 26
52 12
53 52
54 12
55 33
56 44
57 7
58 15

<precedence relations>
1,9
2,25
3,21
3,22
4,10
5,36
6,23
6,24
7,43
8,44
9,11
11,13
11,14
11,15
12,17
13,17
14,17
15,17
16,18
17,20
18,19
19,23
20,21
20,25
21,26
21,44
22,27
23,31
24,31
25,38
26,29
27,30
28,32
28,33
29,31
30,34
31,36
32,45
33,35
34,36
35,43
36,37
36,38
37,39
37,40
37,41
38,52
39,43
40,43
41,42
42,43
43,45
44,45
45,46
45,48
45,49
46,47
46,50
47,51
48,55
49,58
50,58
51,52
52,53
53,54
54,55
54,56
55,57
56,57
57,58

<setup times forward>
1,2:9
1,3:4
1,4:14
1,5:6
1,6:3
1,7:7
1,10:11
1,16:4
1,18:7
1,19:6
1,22:14
1,23:5
1,24:8
1,28:9
1,30:2
1,33:2
1,34:7
1,35:10
2,1:9
2,3:5
2,4:5
2,5:3
2,6:6
2,7:2
2,8:9
2,9:9
2,10:2
2,11:2
2,12:9
2,13:3
2,14:11
2,15:3
2,16:5
2,17:6
2,18:2
2,19:3
2,20:6
2,21:14
2,22:5
2,23:14
2,24:17
2,25:17
2,27:9
2,29:17
2,30:11
2,31:2
2,32:9
2,33:7
2,34:2
2,35:19
2,36:2
2,37:19
2,39:19
2,40:17
2,41:17
2,42:17
2,43:4
2,44:7
2,45:4
2,46:8
2,47:8
2,48:2
2,49:14
2,50:2
2,51:8
3,1:4
3,2:5
3,4:10
3,5:2
3,6:1
3,7:3
3,8:4
3,9:4
3,10:7
3,11:3
3,12:4
3,13:2
3,14:6
3,15:2
3,17:1
3,18:3
3,19:2
3,20:1
3,21:9
3,22:10
3,23:9
3,24:12
3,25:12
3,28:5
3,32:4
3,33:2
3,35:14
4,1:14
4,2:5
4,3:10
4,5:8
4,6:11
4,7:7
4,8:14
4,9:14
4,10:3
4,11:7
4,12:14
4,13:8
4,14:16
4,15:8
4,16:10
4,17:11
4,18:7
4,19:8
4,20:11
4,21:19
4,23:19
4,24:22
4,25:22
4,26:5
4,27:14
4,28:5
4,29:22
4,30:16
4,31:7
4,32:14
4,33:12
4,34:7
4,35:24
4,36:3
4,37:24
4,38:22
4,39:24
4,40:22
4,41:22
4,42:22
4,43:1
4,44:12
4,45:1
4,46:13
4,47:13
4,48:3
4,49:19
4,50:3
4,51:13
4,52:8
4,53:8
4,54:3
4,55:19
4,56:3
4,57:19
4,58:19
5,1:6
5,2:3
5,3:2
5,4:8
5,6:3
5,7:1
5,8:6
5,9:6
5,10:5
5,11:1
5,12:6
5,14:8
5,16:2
5,17:3
5,18:1
5,20:3
5,21:11
5,22:8
5,23:11
5,24:14
5,25:14
5,26:3
5,27:6
5,28:3
5,29:14
5,30:8
5,31:1
5,32:6
5,33:4
5,34:1
5,35:16
5,36:5
5,44:4
6,1:3
6,2:6
6,3:1
6,4:11
6,5:3
6,7:4
6,8:3
6,9:3
6,10:8
6,11:4
6,12:3
6,13:3
6,14:5
6,15:3
6,16:1
6,18:4
6,19:3
6,21:8
6,22:11
6,23:8
6,24:11
6,25:11
6,26:6
6,27:3
6,28:6
6,29:11
6,30:5
6,32:3
6,33:1
6,34:4
6,35:13
6,44:1
7,1:7
7,2:2
7,3:3
7,4:7
7,5:1
7,6:4
7,8:7
7,9:7
7,10:4
7,12:7
7,13:1
7,14:9
7,15:1
7,16:3
7,17:4
7,19:1
7,20:4
7,21:12
7,22:7
7,23:12
7,24:15
7,25:15
7,26:2
7,27:7
7,28:2
7,29:15
7,30:9
7,32:7
7,33:5
7,35:17
7,36:4
7,37:17
7,38:15
7,39:17
7,40:15
7,41:15
7,42:15
7,43:6
7,44:5
8,2:9
8,3:4
8,4:14
8,5:6
8,6:3
8,7:7
8,10:11
8,11:7
8,13:6
8,14:2
8,15:6
8,16:4
8,17:3
8,18:7
8,19:6
8,20:3
8,21:5
8,22:14
8,23:5
8,24:8
8,25:8
8,26:9
8,28:9
8,29:8
8,30:2
8,31:7
8,33:2
8,34:7
8,35:10
8,36:11
8,37:10
8,38:8
8,39:10
8,40:8
8,41:8
8,42:8
8,43:13
8,44:2
9,2:9
9,3:4
9,4:14
9,5:6
9,6:3
9,7:7
9,10:11
9,11:7
9,16:4
9,18:7
9,19:6
9,22:14
9,23:5
9,24:8
9,28:9
9,30:2
9,33:2
9,34:7
9,35:10
10,1:11
10,2:2
10,3:7
10,5:5
10,6:8
10,7:4
10,8:11
10,9:11
10,11:4
10,12:11
10,13:5
10,14:13
10,15:5
10,16:7
10,17:8
10,18:4
10,19:5
10,20:8
10,21:16
10,22:3
10,23:16
10,24:19
10,25:19
10,26:2
10,27:11
10,28:2
10,29:19
10,30:13
10,31:4
10,32:11
10,33:9
10,34:4
10,35:21
10,37:21
10,38:19
10,39:21
10,40:19
10,41:19
10,42:19
10,43:2
10,44:9
10,45:2
10,46:10
10,47:10
10,49:16
10,51:10
10,52:5
10,53:5
10,55:16
10,57:16
10,58:16
11,2:2
11,3:3
11,4:7
11,5:1
11,6:4
11,8:7
11,10:4
11,12:7
11,13:1
11,14:9
11,15:1
11,16:3
11,19:1
11,22:7
11,23:12
11,24:15
11,27:7
11,28:2
11,30:9
11,32:7
11,33:5
11,35:17
12,2:9
12,3:4
12,4:14
12,5:6
12,6:3
12,7:7
12,10:11
12,11:7
12,13:6
12,14:2
12,15:6
12,16:4
12,17:3
12,18:7
12,19:6
12,22:14
12,23:5
12,24:8
12,28:9
12,30:2
12,33:2
12,34:7
12,35:10
13,2:3
13,3:2
13,4:8
13,6:3
13,7:1
13,8:6
13,10:5
13,12:6
13,14:8
13,16:2
13,17:3
13,18:1
13,22:8
13,23:11
13,24:14
13,27:6
13,28:3
13,30:8
13,32:6
13,33:4
13,34:1
13,35:16
14,2:11
14,3:6
14,4:16
14,5:8
14,6:5
14,7:9
14,8:2
14,10:13
14,12:2
14,13:8
14,15:8
14,16:6
14,17:5
14,18:9
14,19:8
14,22:16
14,23:3
14,24:6
14,27:2
14,28:11
14,32:2
14,33:4
14,34:9
14,35:8
15,2:3
15,3:2
15,4:8
15,6:3
15,7:1
15,8:6
15,10:5
15,12:6
15,14:8
15,16:2
15,17:3
15,18:1
15,22:8
15,23:11
15,24:14
15,27:6
15,28:3
15,30:8
15,32:6
15,33:4
15,34:1
15,35:16
16,1:4
16,2:5
16,4:10
16,5:2
16,6:1
16,7:3
16,8:4
16,9:4
16,10:7
16,11:3
16,12:4
16,13:2
16,14:6
16,15:2
16,17:1
16,18:3
16,20:1
16,21:9
16,22:10
16,24:12
16,25:12
16,26:5
16,27:4
16,28:5
16,29:12
16,30:6
16,32:4
16,33:2
16,34:3
16,35:14
16,44:2
17,2:6
17,3:1
17,4:11
17,5:3
17,7:4
17,8:3
17,10:8
17,16:1
17,18:4
17,19:3
17,22:11
17,23:8
17,24:11
17,27:3
17,28:6
17,30:5
17,32:3
17,33:1
17,34:4
17,35:13
18,1:7
18,2:2
18,3:3
18,4:7
18,5:1
18,6:4
18,8:7
18,9:7
18,10:4
18,12:7
18,13:1
18,14:9
18,15:1
18,17:4
18,19:1
18,20:4
18,21:12
18,22:7
18,24:15
18,25:15
18,26:2
18,27:7
18,28:2
18,29:15
18,30:9
18,32:7
18,33:5
18,35:17
18,44:5
19,1:6
19,2:3
19,3:2
19,4:8
19,6:3
19,7:1
19,8:6
19,9:6
19,10:5
19,11:1
19,12:6
19,14:8
19,17:3
19,20:3
19,21:11
19,22:8
19,23:11
19,24:14
19,25:14
19,26:3
19,27:6
19,28:3
19,29:14
19,30:8
19,32:6
19,33:4
19,34:1
19,35:16
19,44:4
20,2:6
20,3:1
20,4:11
20,5:3
20,7:4
20,8:3
20,10:8
20,16:1
20,18:4
20,19:3
20,21:8
20,22:11
20,23:8
20,24:11
20,25:11
20,27:3
20,28:6
20,30:5
20,32:3
20,33:1
20,34:4
20,35:13
21,2:14
21,4:19
21,5:11
21,6:8
21,7:12
21,8:5
21,10:16
21,16:9
21,18:12
21,19:11
21,22:19
21,24:3
21,25:3
21,26:14
21,27:5
21,28:14
21,30:3
21,32:5
21,33:7
21,34:12
21,35:5
21,44:7
22,1:14
22,2:5
22,5:8
22,6:11
22,7:7
22,8:14
22,9:14
22,10:3
22,11:7
22,12:14
22,13:8
22,14:16
22,15:8
22,16:10
22,17:11
22,18:7
22,19:8
22,20:11
22,21:19
22,23:19
22,24:22
22,25:22
22,26:5
22,27:14
22,28:5
22,29:22
22,31:7
22,32:14
22,33:12
22,35:24
22,44:12
23,1:5
23,2:14
23,3:9
23,4:19
23,5:11
23,7:12
23,8:5
23,9:5
23,10:16
23,11:12
23,12:5
23,13:11
23,14:3
23,15:11
23,17:8
23,20:8
23,22:19
23,24:3
23,25:3
23,26:14
23,27:5
23,28:14
23,29:3
23,30:3
23,31:12
23,32:5
23,33:7
23,34:12
23,35:5
23,44:7
24,1:8
24,2:17
24,3:12
24,4:22
24,5:14
24,7:15
24,8:8
24,9:8
24,10:19
24,11:15
24,12:8
24,13:14
24,14:6
24,15:14
24,16:12
24,17:11
24,18:15
24,19:14
24,20:11
24,21:3
24,22:22
24,23:3
24,26:17
24,27:8
24,28:17
24,30:6
24,31:15
24,32:8
24,33:10
24,34:15
24,35:2
24,44:10
25,3:12
25,4:22
25,5:14
25,6:11
25,7:15
25,8:8
25,10:19
25,16:12
25,18:15
25,19:14
25,21:3
25,22:22
25,23:3
25,26:17
25,27:8
25,28:17
25,30:6
25,31:15
25,32:8
25,33:10
25,34:15
25,35:2
25,36:19
25,37:2
25,39:2
25,43:21
25,44:10
25,45:21
25,46:9
25,47:9
25,48:19
25,49:3
25,50:19
25,51:9
26,4:5
26,5:3
26,6:6
26,7:2
26,8:9
26,10:2
26,16:5
26,18:2
26,19:3
26,22:5
26,23:14
26,24:17
26,25:17
26,27:9
26,29:17
26,30:11
26,32:9
26,33:7
26,34:2
26,35:19
26,44:7
27,2:9
27,4:14
27,5:6
27,6:3
27,7:7
27,10:11
27,11:7
27,13:6
27,14:2
27,15:6
27,16:4
27,17:3
27,18:7
27,19:6
27,20:3
27,21:5
27,23:5
27,24:8
27,25:8
27,26:9
27,28:9
27,29:8
27,30:2
27,31:7
27,33:2
27,35:10
27,44:2
28,1:9
28,3:5
28,4:5
28,5:3
28,6:6
28,7:2
28,8:9
28,9:9
28,10:2
28,11:2
28,12:9
28,13:3
28,14:11
28,15:3
28,16:5
28,17:6
28,18:2
28,19:3
28,20:6
28,21:14
28,22:5
28,23:14
28,24:17
28,25:17
28,27:9
28,29:17
28,30:11
28,31:2
28,32:9
28,33:7
28,34:2
28,36:2
28,37:19
28,38:17
28,39:19
28,40:17
28,41:17
28,42:17
28,44:7
29,2:17
29,4:22
29,5:14
29,6:11
29,7:15
29,8:8
29,10:19
29,16:12
29,18:15
29,19:14
29,22:22
29,23:3
29,27:8
29,28:17
29,30:6
29,31:15
29,32:8
29,33:10
29,34:15
29,35:2
29,44:10
30,1:2
30,2:11
30,4:16
30,5:8
30,6:5
30,7:9
30,8:2
30,9:2
30,10:13
30,11:9
30,12:2
30,13:8
30,15:8
30,16:6
30,17:5
30,18:9
30,19:8
30,20:5
30,21:3
30,23:3
30,24:6
30,25:6
30,26:11
30,28:11
30,29:6
30,31:9
30,32:2
30,33:4
30,34:9
30,35:8
30,44:4
31,2:2
31,4:7
31,5:1
31,8:7
31,10:4
31,22:7
31,25:15
31,27:7
31,28:2
31,30:9
31,32:7
31,33:5
31,35:17
31,36:4
31,44:5
32,2:9
32,3:4
32,4:14
32,5:6
32,6:3
32,7:7
32,10:11
32,11:7
32,13:6
32,14:2
32,15:6
32,16:4
32,17:3
32,18:7
32,19:6
32,20:3
32,21:5
32,22:14
32,23:5
32,24:8
32,25:8
32,26:9
32,29:8
32,30:2
32,31:7
32,33:2
32,34:7
32,35:10
32,36:11
32,37:10
32,38:8
32,39:10
32,40:8
32,41:8
32,42:8
32,43:13
32,44:2
32,45:13
33,1:2
33,2:7
33,3:2
33,4:12
33,5:4
33,6:1
33,7:5
33,8:2
33,9:2
33,10:9
33,11:5
33,12:2
33,13:4
33,14:4
33,15:4
33,16:2
33,17:1
33,18:5
33,19:4
33,20:1
33,21:7
33,22:12
33,23:7
33,24:10
33,25:10
33,26:7
33,27:2
33,29:10
33,30:4
33,31:5
33,32:2
33,34:5
33,35:12
33,36:9
33,37:12
33,38:10
33,39:12
33,40:10
33,41:10
33,42:10
34,1:7
34,2:2
34,4:7
34,5:1
34,6:4
34,8:7
34,9:7
34,10:4
34,12:7
34,13:1
34,14:9
34,15:1
34,16:3
34,17:4
34,19:1
34,20:4
34,21:12
34,23:12
34,24:15
34,25:15
34,26:2
34,28:2
34,29:15
34,32:7
34,33:5
34,35:17
34,36:4
34,44:5
35,1:10
35,2:19
35,3:14
35,4:24
35,5:16
35,6:13
35,7:17
35,8:10
35,9:10
35,10:21
35,11:17
35,12:10
35,13:16
35,14:8
35,15:16
35,16:14
35,17:13
35,18:17
35,19:16
35,20:13
35,21:5
35,22:24
35,23:5
35,24:2
35,25:2
35,26:19
35,27:10
35,29:2
35,30:8
35,31:17
35,32:10
35,34:17
35,36:21
35,38:2
35,40:2
35,41:2
35,42:2
35,43:23
35,44:12
36,2:2
36,4:3
36,7:4
36,8:11
36,25:19
36,28:2
36,32:11
36,33:9
36,35:21
36,37:21
36,38:19
36,44:9
37,2:19
37,4:24
37,7:17
37,8:10
37,10:21
37,25:2
37,28:19
37,32:10
37,33:12
37,38:2
37,40:2
37,41:2
37,44:12
38,4:22
38,7:15
38,8:8
38,10:19
38,28:17
38,32:8
38,33:10
38,35:2
38,37:2
38,39:2
38,43:21
38,44:10
38,45:21
38,46:9
38,47:9
38,48:19
38,49:3
38,50:19
38,51:9
38,52:14
39,2:19
39,4:24
39,7:17
39,8:10
39,10:21
39,25:2
39,28:19
39,32:10
39,33:12
39,38:2
39,40:2
39,41:2
39,42:2
39,43:23
39,44:12
40,2:17
40,4:22
40,7:15
40,8:8
40,10:19
40,28:17
40,32:8
40,33:10
40,35:2
40,39:2
40,43:21
40,44:10
41,2:17
41,4:22
41,7:15
41,8:8
41,10:19
41,28:17
41,32:8
41,33:10
41,35:2
41,39:2
41,44:10
42,2:17
42,4:22
42,7:15
42,8:8
42,10:19
42,28:17
42,32:8
42,33:10
42,35:2
42,39:2
42,43:21
42,44:10
43,2:4
43,4:1
43,8:13
43,10:2
43,25:21
43,32:13
43,38:21
43,44:11
44,2:7
44,4:12
44,5:4
44,6:1
44,7:5
44,10:9
44,16:2
44,18:5
44,19:4
44,22:12
44,23:7
44,24:10
44,25:10
44,26:7
44,27:2
44,28:7
44,29:10
44,30:4
44,31:5
44,32:2
44,34:5
44,35:12
44,36:9
44,37:12
44,38:10
44,39:12
44,40:10
44,41:10
44,42:10
44,43:11
44,45:11
45,2:4
45,4:1
45,10:2
45,25:21
45,38:21
45,46:12
45,48:2
45,49:18
46,2:8
46,4:13
46,10:10
46,25:9
46,38:9
46,48:10
46,49:6
46,50:10
47,2:8
47,4:13
47,10:10
47,25:9
47,38:9
47,48:10
47,49:6
47,50:10
48,2:2
48,4:3
48,25:19
48,38:19
48,46:10
48,47:10
48,49:16
48,51:10
48,52:5
48,53:5
48,55:16
49,2:14
49,4:19
49,10:16
49,25:3
49,38:3
49,46:6
49,47:6
49,48:16
49,50:16
49,51:6
49,52:11
49,53:11
49,54:16
49,56:16
50,2:2
50,4:3
50,25:19
50,38:19
50,47:10
50,49:16
50,51:10
50,52:5
50,53:5
50,55:16
50,57:16
50,58:16
51,2:8
51,4:13
51,10:10
51,25:9
51,38:9
51,48:10
51,49:6
51,50:10
51,52:5
52,4:8
52,10:5
52,48:5
52,49:11
52,50:5
53,4:8
53,10:5
53,48:5
53,49:11
53,50:5
53,54:5
54,4:3
54,49:16
54,55:16
55,4:19
55,10:16
55,50:16
55,56:16
56,4:3
56,49:16
56,55:16
56,57:16
57,4:19
57,10:16
57,50:16
58,4:19
58,10:16

<setup times backward>
1,23:5
1,24:8
1,30:2
1,35:10
2,1:9
2,3:5
2,5:3
2,6:6
2,7:2
2,8:9
2,9:9
2,11:2
2,12:9
2,13:3
2,14:11
2,15:3
2,16:5
2,17:6
2,18:2
2,19:3
2,20:6
2,21:14
2,23:14
2,24:17
2,27:9
2,29:17
2,30:11
2,31:2
2,32:9
2,33:7
2,34:2
2,35:19
2,37:19
2,39:19
2,40:17
2,41:17
2,42:17
2,44:7
2,46:8
2,47:8
2,49:14
2,51:8
3,1:4
3,6:1
3,8:4
3,9:4
3,12:4
3,14:6
3,17:1
3,20:1
3,23:9
3,24:12
3,25:12
3,32:4
3,33:2
3,35:14
4,1:14
4,2:5
4,3:10
4,5:8
4,6:11
4,7:7
4,8:14
4,9:14
4,11:7
4,12:14
4,13:8
4,14:16
4,15:8
4,16:10
4,17:11
4,18:7
4,19:8
4,20:11
4,21:19
4,23:19
4,24:22
4,25:22
4,26:5
4,27:14
4,28:5
4,29:22
4,30:16
4,31:7
4,32:14
4,33:12
4,34:7
4,35:24
4,36:3
4,37:24
4,38:22
4,39:24
4,40:22
4,41:22
4,42:22
4,43:1
4,44:12
4,45:1
4,46:13
4,47:13
4,48:3
4,49:19
4,50:3
4,51:13
4,52:8
4,53:8
4,54:3
4,55:19
4,56:3
4,57:19
4,58:19
5,1:6
5,3:2
5,6:3
5,8:6
5,9:6
5,12:6
5,14:8
5,16:2
5,17:3
5,20:3
5,21:11
5,23:11
5,24:14
5,25:14
5,27:6
5,29:14
5,30:8
5,32:6
5,33:4
5,35:16
5,44:4
6,1:3
6,8:3
6,9:3
6,12:3
6,14:5
6,21:8
6,25:11
6,27:3
6,29:11
6,30:5
6,32:3
6,33:1
6,35:13
6,44:1
7,1:7
7,3:3
7,5:1
7,6:4
7,8:7
7,9:7
7,12:7
7,13:1
7,14:9
7,15:1
7,16:3
7,17:4
7,19:1
7,20:4
7,21:12
7,23:12
7,24:15
7,25:15
7,27:7
7,29:15
7,30:9
7,32:7
7,33:5
7,35:17
7,37:17
7,38:15
7,39:17
7,40:15
7,41:15
7,42:15
7,44:5
8,14:2
8,21:5
8,23:5
8,24:8
8,25:8
8,29:8
8,30:2
8,35:10
8,37:10
8,38:8
8,39:10
8,40:8
8,41:8
8,42:8
9,23:5
9,24:8
9,30:2
9,35:10
10,1:11
10,2:2
10,3:7
10,5:5
10,6:8
10,7:4
10,8:11
10,9:11
10,11:4
10,12:11
10,13:5
10,14:13
10,15:5
10,16:7
10,17:8
10,18:4
10,19:5
10,20:8
10,21:16
10,23:16
10,24:19
10,25:19
10,26:2
10,27:11
10,28:2
10,29:19
10,30:13
10,31:4
10,32:11
10,33:9
10,34:4
10,35:21
10,37:21
10,38:19
10,39:21
10,40:19
10,41:19
10,42:19
10,44:9
10,46:10
10,47:10
10,49:16
10,51:10
10,52:5
10,53:5
10,55:16
10,57:16
10,58:16
11,1:7
11,3:3
11,5:1
11,6:4
11,8:7
11,9:7
11,12:7
11,16:3
11,19:1
11,23:12
11,24:15
11,27:7
11,30:9
11,32:7
11,33:5
11,35:17
12,14:2
12,23:5
12,24:8
12,30:2
12,35:10
13,1:6
13,3:2
13,6:3
13,8:6
13,9:6
13,12:6
13,14:8
13,16:2
13,23:11
13,24:14
13,27:6
13,30:8
13,32:6
13,33:4
13,35:16
14,23:3
14,24:6
14,35:8
15,1:6
15,3:2
15,6:3
15,8:6
15,9:6
15,12:6
15,14:8
15,16:2
15,23:11
15,24:14
15,27:6
15,30:8
15,32:6
15,33:4
15,35:16
16,1:4
16,6:1
16,8:4
16,9:4
16,12:4
16,14:6
16,17:1
16,20:1
16,21:9
16,24:12
16,25:12
16,27:4
16,29:12
16,30:6
16,32:4
16,33:2
16,35:14
16,44:2
17,1:3
17,8:3
17,9:3
17,12:3
17,14:5
17,23:8
17,24:11
17,27:3
17,30:5
17,32:3
17,33:1
17,35:13
18,1:7
18,3:3
18,5:1
18,6:4
18,8:7
18,9:7
18,12:7
18,13:1
18,14:9
18,15:1
18,16:3
18,17:4
18,20:4
18,21:12
18,24:15
18,25:15
18,27:7
18,29:15
18,30:9
18,32:7
18,33:5
18,35:17
18,44:5
19,1:6
19,3:2
19,6:3
19,8:6
19,9:6
19,12:6
19,14:8
19,16:2
19,17:3
19,20:3
19,21:11
19,24:14
19,25:14
19,27:6
19,29:14
19,30:8
19,32:6
19,33:4
19,35:16
19,44:4
20,1:3
20,8:3
20,9:3
20,12:3
20,14:5
20,23:8
20,24:11
20,27:3
20,30:5
20,32:3
20,33:1
20,35:13
21,24:3
21,25:3
21,35:5
22,1:14
22,2:5
22,3:10
22,5:8
22,6:11
22,7:7
22,8:14
22,9:14
22,10:3
22,11:7
22,12:14
22,13:8
22,14:16
22,15:8
22,16:10
22,17:11
22,18:7
22,19:8
22,20:11
22,21:19
22,23:19
22,24:22
22,25:22
22,26:5
22,28:5
22,29:22
22,31:7
22,32:14
22,33:12
22,35:24
22,44:12
23,24:3
23,25:3
23,29:3
23,35:5
24,35:2
25,35:2
25,37:2
25,39:2
26,1:9
26,3:5
26,5:3
26,6:6
26,7:2
26,8:9
26,9:9
26,11:2
26,12:9
26,13:3
26,14:11
26,15:3
26,16:5
26,17:6
26,18:2
26,19:3
26,20:6
26,21:14
26,23:14
26,24:17
26,25:17
26,27:9
26,30:11
26,32:9
26,33:7
26,34:2
26,35:19
26,44:7
27,14:2
27,21:5
27,23:5
27,24:8
27,25:8
27,29:8
27,35:10
28,1:9
28,3:5
28,5:3
28,6:6
28,7:2
28,8:9
28,9:9
28,11:2
28,12:9
28,13:3
28,14:11
28,15:3
28,16:5
28,17:6
28,18:2
28,19:3
28,20:6
28,21:14
28,23:14
28,24:17
28,25:17
28,27:9
28,29:17
28,30:11
28,31:2
28,34:2
28,37:19
28,38:17
28,39:19
28,40:17
28,41:17
28,42:17
28,44:7
29,35:2
30,21:3
30,23:3
30,24:6
30,25:6
30,29:6
30,35:8
31,1:7
31,3:3
31,5:1
31,6:4
31,8:7
31,9:7
31,12:7
31,13:1
31,14:9
31,15:1
31,16:3
31,17:4
31,19:1
31,20:4
31,21:12
31,23:12
31,24:15
31,25:15
31,27:7
31,29:15
31,30:9
31,32:7
31,33:5
31,35:17
31,44:5
32,14:2
32,21:5
32,23:5
32,24:8
32,25:8
32,29:8
32,30:2
32,35:10
32,37:10
32,38:8
32,39:10
32,40:8
32,41:8
32,42:8
33,1:2
33,8:2
33,9:2
33,12:2
33,14:4
33,21:7
33,23:7
33,24:10
33,25:10
33,27:2
33,29:10
33,30:4
33,32:2
33,37:12
33,38:10
33,39:12
33,40:10
33,41:10
33,42:10
34,1:7
34,3:3
34,5:1
34,6:4
34,8:7
34,9:7
34,12:7
34,13:1
34,14:9
34,15:1
34,16:3
34,17:4
34,19:1
34,20:4
34,21:12
34,23:12
34,24:15
34,25:15
34,27:7
34,29:15
34,30:9
34,32:7
34,33:5
34,35:17
34,44:5
36,1:11
36,2:2
36,3:7
36,5:5
36,6:8
36,7:4
36,8:11
36,9:11
36,11:4
36,12:11
36,13:5
36,14:13
36,15:5
36,16:7
36,17:8
36,18:4
36,19:5
36,20:8
36,21:16
36,23:16
36,24:19
36,25:19
36,26:2
36,27:11
36,28:2
36,29:19
36,30:13
36,31:4
36,32:11
36,33:9
36,34:4
36,35:21
36,44:9
38,35:2
38,37:2
38,39:2
40,35:2
40,37:2
40,39:2
41,35:2
41,37:2
41,39:2
42,35:2
42,37:2
42,39:2
43,1:13
43,2:4
43,3:9
43,5:7
43,6:10
43,7:6
43,8:13
43,9:13
43,10:2
43,11:6
43,12:13
43,13:7
43,14:15
43,15:7
43,16:9
43,17:10
43,18:6
43,19:7
43,20:10
43,21:18
43,23:18
43,24:21
43,25:21
43,26:4
43,27:13
43,28:4
43,29:21
43,30:15
43,31:6
43,32:13
43,33:11
43,34:6
43,35:23
43,36:2
43,37:23
43,38:21
43,39:23
43,40:21
43,41:21
43,42:21
43,44:11
44,1:2
44,8:2
44,9:2
44,12:2
44,14:4
44,21:7
44,23:7
44,24:10
44,25:10
44,27:2
44,29:10
44,30:4
44,32:2
44,35:12
44,37:12
44,38:10
44,39:12
44,40:10
44,41:10
44,42:10
45,1:13
45,2:4
45,3:9
45,5:7
45,6:10
45,7:6
45,8:13
45,9:13
45,10:2
45,11:6
45,12:13
45,13:7
45,14:15
45,15:7
45,16:9
45,17:10
45,18:6
45,19:7
45,20:10
45,21:18
45,23:18
45,24:21
45,25:21
45,26:4
45,27:13
45,28:4
45,29:21
45,30:15
45,31:6
45,32:13
45,33:11
45,34:6
45,35:23
45,36:2
45,37:23
45,38:21
45,39:23
45,40:21
45,41:21
45,42:21
45,44:11
46,1:1
46,8:1
46,9:1
46,12:1
46,14:3
46,21:6
46,23:6
46,24:9
46,25:9
46,27:1
46,29:9
46,30:3
46,32:1
46,35:11
46,37:11
46,38:9
46,39:11
46,40:9
46,41:9
46,42:9
46,49:6
47,1:1
47,8:1
47,9:1
47,12:1
47,14:3
47,21:6
47,23:6
47,24:9
47,25:9
47,27:1
47,29:9
47,30:3
47,32:1
47,35:11
47,37:11
47,38:9
47,39:11
47,40:9
47,41:9
47,42:9
47,49:6
48,1:11
48,2:2
48,3:7
48,5:5
48,6:8
48,7:4
48,8:11
48,9:11
48,11:4
48,12:11
48,13:5
48,14:13
48,15:5
48,16:7
48,17:8
48,18:4
48,19:5
48,20:8
48,21:16
48,23:16
48,24:19
48,25:19
48,26:2
48,27:11
48,28:2
48,29:19
48,30:13
48,31:4
48,32:11
48,33:9
48,34:4
48,35:21
48,37:21
48,38:19
48,39:21
48,40:19
48,41:19
48,42:19
48,44:9
48,46:10
48,47:10
48,49:16
48,51:10
48,52:5
48,53:5
49,24:3
49,25:3
49,29:3
49,35:5
49,37:5
49,38:3
49,39:5
49,40:3
49,41:3
49,42:3
50,1:11
50,2:2
50,3:7
50,5:5
50,6:8
50,7:4
50,8:11
50,9:11
50,11:4
50,12:11
50,13:5
50,14:13
50,15:5
50,16:7
50,17:8
50,18:4
50,19:5
50,20:8
50,21:16
50,23:16
50,24:19
50,25:19
50,26:2
50,27:11
50,28:2
50,29:19
50,30:13
50,31:4
50,32:11
50,33:9
50,34:4
50,35:21
50,37:21
50,38:19
50,39:21
50,40:19
50,41:19
50,42:19
50,44:9
50,46:10
50,47:10
50,49:16
50,51:10
50,52:5
50,53:5
50,55:16
50,57:16
51,1:1
51,8:1
51,9:1
51,12:1
51,14:3
51,21:6
51,23:6
51,24:9
51,25:9
51,27:1
51,29:9
51,30:3
51,32:1
51,35:11
51,37:11
51,38:9
51,39:11
51,40:9
51,41:9
51,42:9
51,49:6
52,1:6
52,3:2
52,6:3
52,8:6
52,9:6
52,12:6
52,14:8
52,16:2
52,17:3
52,20:3
52,21:11
52,23:11
52,24:14
52,25:14
52,27:6
52,29:14
52,30:8
52,32:6
52,33:4
52,35:16
52,37:16
52,38:14
52,39:16
52,40:14
52,41:14
52,42:14
52,44:4
52,46:5
52,47:5
52,49:11
52,51:5
53,1:6
53,3:2
53,6:3
53,8:6
53,9:6
53,12:6
53,14:8
53,16:2
53,17:3
53,20:3
53,21:11
53,23:11
53,24:14
53,25:14
53,27:6
53,29:14
53,30:8
53,32:6
53,33:4
53,35:16
53,37:16
53,38:14
53,39:16
53,40:14
53,41:14
53,42:14
53,44:4
53,46:5
53,47:5
53,49:11
53,51:5
54,1:11
54,2:2
54,3:7
54,5:5
54,6:8
54,7:4
54,8:11
54,9:11
54,11:4
54,12:11
54,13:5
54,14:13
54,15:5
54,16:7
54,17:8
54,18:4
54,19:5
54,20:8
54,21:16
54,23:16
54,24:19
54,25:19
54,26:2
54,27:11
54,28:2
54,29:19
54,30:13
54,31:4
54,32:11
54,33:9
54,34:4
54,35:21
54,37:21
54,38:19
54,39:21
54,40:19
54,41:19
54,42:19
54,44:9
54,46:10
54,47:10
54,49:16
54,51:10
54,52:5
54,53:5
55,24:3
55,25:3
55,29:3
55,35:5
55,37:5
55,38:3
55,39:5
55,40:3
55,41:3
55,42:3
56,1:11
56,2:2
56,3:7
56,5:5
56,6:8
56,7:4
56,8:11
56,9:11
56,11:4
56,12:11
56,13:5
56,14:13
56,15:5
56,16:7
56,17:8
56,18:4
56,19:5
56,20:8
56,21:16
56,23:16
56,24:19
56,25:19
56,26:2
56,27:11
56,28:2
56,29:19
56,30:13
56,31:4
56,32:11
56,33:9
56,34:4
56,35:21
56,37:21
56,38:19
56,39:21
56,40:19
56,41:19
56,42:19
56,44:9
56,46:10
56,47:10
56,49:16
56,51:10
56,52:5
56,53:5
56,55:16
57,24:3
57,25:3
57,29:3
57,35:5
57,37:5
57,38:3
57,39:5
57,40:3
57,41:3
57,42:3
58,24:3
58,25:3
58,29:3
58,35:5
58,37:5
58,38:3
58,39:5
58,40:3
58,41:3
58,42:3

<end>

<optimal SALBP-1 value>
22


<rand seed>
467321153

